NAME : tsp_207_sol.txt
COMMENT : OR-Tools Guided Local Search
TYPE : TOUR
DIMENSION : 50
COST : 5681
STATUS : ROUTING_SUCCESS
GAP : 0.00% (Reference Solution)
TOUR_SECTION
1
39
48
21
5
4
49
7
14
32
15
50
37
30
13
38
34
43
8
41
23
24
16
6
36
29
31
42
46
40
27
10
17
3
35
19
25
12
20
22
18
47
9
45
28
33
2
11
44
26
-1
